NAME: n60q20G.tsp, 60 nodes, semilla 666
COMMENT: Problema aleatorio de norma euclidea
DIMENSION: 60
CAPACITY: 20
EDGE_WEIGHT_TYPE: EUC_2D
NODE_COORD_SECTION
1   0.0000   0.0000
2 235.0000 -286.0000
3 -447.0000 493.0000
4  60.0000 350.0000
5 -467.0000 374.0000
6 500.0000 390.0000
7 169.0000 153.0000
8 -413.0000 -465.0000
9 254.0000 -350.0000
10 -15.0000 -331.0000
11 -493.0000 341.0000
12 -223.0000  27.0000
13 305.0000 -209.0000
14 -60.0000 443.0000
15  35.0000 331.0000
16 -487.0000 -365.0000
17 -310.0000 -272.0000
18 347.0000  65.0000
19 416.0000 161.0000
20 299.0000 -15.0000
21 -173.0000 157.0000
22 360.0000 -12.0000
23 -291.0000 -184.0000
24 341.0000 299.0000
25 -15.0000 474.0000
26 -294.0000 -340.0000
27 -328.0000 134.0000
28 245.0000 108.0000
29 -403.0000 -282.0000
30 474.0000 -250.0000
31 -378.0000 413.0000
32 -240.0000 363.0000
33 -251.0000 -387.0000
34 -217.0000  74.0000
35 -379.0000  43.0000
36 -329.0000  34.0000
37 -408.0000 -209.0000
38 226.0000 -290.0000
39 368.0000 464.0000
40 -204.0000 -424.0000
41 -347.0000  23.0000
42 -38.0000 -191.0000
43 -185.0000 -398.0000
44 474.0000 -137.0000
45 -331.0000 -291.0000
46 -111.0000 280.0000
47 -363.0000 484.0000
48 -486.0000   7.0000
49 460.0000 300.0000
50 389.0000 189.0000
51 184.0000 -214.0000
52 183.0000 -55.0000
53 -412.0000 140.0000
54 -71.0000 -141.0000
55   4.0000 -281.0000
56 -189.0000 -475.0000
57 -278.0000 -383.0000
58 298.0000  75.0000
59 -176.0000 232.0000
60 127.0000 -19.0000
DISPLAY_DATA_SECTION:
 1  250  250
 2  367  107
 3   26  496
 4  280  425
 5   16  437
 6  500  445
 7  334  326
 8   43   17
 9  377   75
10  242   84
11    3  420
12  138  263
13  402  145
14  220  471
15  267  415
16    6   67
17   95  114
18  423  282
19  458  330
20  399  242
21  163  328
22  430  244
23  104  158
24  420  399
25  242  487
26  103   80
27   86  317
28  372  304
29   48  109
30  487  125
31   61  456
32  130  431
33  124   56
34  141  287
35   60  271
36   85  267
37   46  145
38  363  105
39  434  482
40  148   38
41   76  261
42  231  154
43  157   51
44  487  181
45   84  104
46  194  390
47   68  492
48    7  253
49  480  400
50  444  344
51  342  143
52  341  222
53   44  320
54  214  179
55  252  109
56  155   12
57  111   58
58  399  287
59  162  366
60  313  240
DEMAND_SECTION
1 7
2 6
3 -5
4 -3
5 0
6 3
7 5
8 7
9 -8
10 4
11 -1
12 -9
13 5
14 1
15 2
16 -1
17 -8
18 6
19 9
20 -8
21 -6
22 -10
23 2
24 -7
25 8
26 -5
27 4
28 6
29 3
30 5
31 -1
32 5
33 5
34 -8
35 -10
36 -10
37 0
38 8
39 -7
40 -1
41 5
42 5
43 -10
44 0
45 4
46 4
47 5
48 -9
49 4
50 -3
51 -1
52 4
53 10
54 3
55 -6
56 -4
57 -3
58 -4
59 6
60 -3
EOF